(set-info :smt-lib-version 2.6)
(set-info :category "crafted")
(set-logic QF_FFA)
(define-sort FF0 () (_ FiniteField 52435875175126190479447740508185965837690552500527637822603658699938581184513))
(declare-fun j_n3_alt () FF0)
(declare-fun c_n6_alt () FF0)
(declare-fun g_n9_alt () FF0)
(declare-fun mul_n12_alt () FF0)
(declare-fun e_n2_alt () FF0)
(declare-fun i_n5_alt () FF0)
(declare-fun f_n1_alt () FF0)
(declare-fun d_n4_alt () FF0)
(declare-fun a_n10_alt () FF0)
(declare-fun h_n0_alt () FF0)
(declare-fun return_n7_alt () FF0)
(declare-fun is_zero_inv_n13_alt () FF0)
(declare-fun b_n8_alt () FF0)
(declare-fun mul_n11_alt () FF0)
(declare-fun j_n3 () FF0)
(declare-fun c_n6 () FF0)
(declare-fun g_n9 () FF0)
(declare-fun mul_n12 () FF0)
(declare-fun e_n2 () FF0)
(declare-fun i_n5 () FF0)
(declare-fun f_n1 () FF0)
(declare-fun d_n4 () FF0)
(declare-fun a_n10 () FF0)
(declare-fun h_n0 () FF0)
(declare-fun return_n7 () FF0)
(declare-fun is_zero_inv_n13 () FF0)
(declare-fun b_n8 () FF0)
(declare-fun mul_n11 () FF0)
(assert 
  (let ((let0 (as ff0 FF0)))
  (let ((let1 (as ff8 FF0)))
  (let ((let2 (as ff52435875175126190479447740508185965837690552500527637822603658699938581184512 FF0)))
  (let ((let3 j_n3_alt))
  (let ((let4 (ff.mul let3 let2)))
  (let ((let5 c_n6_alt))
  (let ((let6 (ff.mul let5 let2)))
  (let ((let7 g_n9_alt))
  (let ((let8 mul_n12_alt))
  (let ((let9 (ff.mul let8 let2)))
  (let ((let10 e_n2_alt))
  (let ((let11 (ff.mul let10 let2)))
  (let ((let12 i_n5_alt))
  (let ((let13 (ff.mul let12 let2)))
  (let ((let14 f_n1_alt))
  (let ((let15 (ff.mul let14 let2)))
  (let ((let16 d_n4_alt))
  (let ((let17 a_n10_alt))
  (let ((let18 (ff.mul let17 let2)))
  (let ((let19 h_n0_alt))
  (let ((let20 (ff.mul let19 let2)))
  (let ((let21 (ff.add let20 let18 let16 let15 let13 let11 let9 let7 let6 let4 let1)))
  (let ((let22 return_n7_alt))
  (let ((let23 (ff.mul let22 let21)))
  (let ((let24 (= let23 let0)))
  (let ((let25 (as ff1 FF0)))
  (let ((let26 (ff.mul let22 let2)))
  (let ((let27 (ff.add let26 let25)))
  (let ((let28 is_zero_inv_n13_alt))
  (let ((let29 (ff.mul let28 let21)))
  (let ((let30 (= let29 let27)))
  (let ((let31 b_n8_alt))
  (let ((let32 mul_n11_alt))
  (let ((let33 (ff.mul let32 let31)))
  (let ((let34 (= let33 let8)))
  (let ((let35 (ff.mul let31 let16)))
  (let ((let36 (= let35 let32)))
  (let ((let37 (and let36 let34 let30 let24)))
  (let ((let38 j_n3))
  (let ((let39 (ff.mul let38 let2)))
  (let ((let40 c_n6))
  (let ((let41 (ff.mul let40 let2)))
  (let ((let42 g_n9))
  (let ((let43 mul_n12))
  (let ((let44 (ff.mul let43 let2)))
  (let ((let45 e_n2))
  (let ((let46 (ff.mul let45 let2)))
  (let ((let47 i_n5))
  (let ((let48 (ff.mul let47 let2)))
  (let ((let49 f_n1))
  (let ((let50 (ff.mul let49 let2)))
  (let ((let51 d_n4))
  (let ((let52 a_n10))
  (let ((let53 (ff.mul let52 let2)))
  (let ((let54 h_n0))
  (let ((let55 (ff.mul let54 let2)))
  (let ((let56 (ff.add let55 let53 let51 let50 let48 let46 let44 let42 let41 let39 let1)))
  (let ((let57 return_n7))
  (let ((let58 (ff.mul let57 let56)))
  (let ((let59 (= let58 let0)))
  (let ((let60 (ff.mul let57 let2)))
  (let ((let61 (ff.add let60 let25)))
  (let ((let62 is_zero_inv_n13))
  (let ((let63 (ff.mul let62 let56)))
  (let ((let64 (= let63 let61)))
  (let ((let65 b_n8))
  (let ((let66 mul_n11))
  (let ((let67 (ff.mul let66 let65)))
  (let ((let68 (= let67 let43)))
  (let ((let69 (ff.mul let65 let51)))
  (let ((let70 (= let69 let66)))
  (let ((let71 (and let70 let68 let64 let59)))
  (let ((let72 (= let57 let22)))
  (let ((let73 (not let72)))
  (let ((let74 (= let65 let31)))
  (let ((let75 (= let45 let10)))
  (let ((let76 (= let49 let14)))
  (let ((let77 (= let42 let7)))
  (let ((let78 (= let51 let16)))
  (let ((let79 (= let40 let5)))
  (let ((let80 (= let54 let19)))
  (let ((let81 (= let52 let17)))
  (let ((let82 (= let47 let12)))
  (let ((let83 (= let38 let3)))
  (let ((let84 (and let83 let82 let81 let80 let79 let78 let77 let76 let75 let74)))
  (let ((let85 (and let84 let73 let71 let37)))
  let85
))))))))))))))))))))))))))))))))))))))))))))))))))))))))))))))))))))))))))))))))))))))
)
(check-sat)
